NAME : XML100_1236_24
DIMENSION : 101
NB_CLUSTERS : 5
CLUSTERING_ALG : KMedoids
CLUSTERING_PARAMS : k(4)
CLUSTERS
1 0
2 10 11 12 16 21 23 24 27 29 31 34 39 42 43 50 59 61 62 66 70 73 75 77 78 86 95 100
3 1 4 13 15 20 36 37 45 49 54 74 76 79 81 90 94 96 99
4 2 7 14 22 25 26 28 32 35 41 52 53 56 63 69 72 83 88 92 93 98
5 3 5 6 8 9 17 18 19 30 33 38 40 44 46 47 48 51 55 57 58 60 64 65 67 68 71 80 82 84 85 87 89 91 97
EOF